NAME : A-n45-k7-20
TYPE : VRP-D
DIMENSION : 20
CAPACITY : 100
NODE_COORD_SECTION 
 1 61 99
 2 95 7
 3 45 87
 4 15 47
 5 39 75
 6 55 23
 7 29 71
 8 87 79
 9 75 63
 10 65 61
 11 73 35
 12 17 35
 13 39 99
 14 75 77
 15 49 37
 16 85 31
 17 89 71
 18 89 43
 19 79 81
 20 45 5
DEMAND_SECTION 
1 0 
2 14 
3 1 
4 16 
5 23 
6 12 
7 6 
8 5 
9 1 
10 13 
11 20 
12 14 
13 18 
14 7 
15 8 
16 21 
17 8 
18 24 
19 20 
20 19 
DEPOT_SECTION 
 1  
 -1  
EOF 
